NAME: random_points
TYPE: TSP
DIMENSION: 32
EDGE_WEIGHT_TYPE: EUC_2D
NODE_COORD_SECTION
1 41 54
2 64 57
3 17 58
4 19 25
5 12 84
6 18 58
7 77 16
8 44 12
9 74 44
10 85 50
11 29 27
12 21 8
13 69 73
14 18 91
15 64 22
16 49 97
17 84 22
18 38 19
19 8 89
20 62 8
21 3 6
22 56 75
23 81 79
24 33 61
25 75 71
26 95 93
27 77 88
28 57 1
29 95 30
30 58 54
31 10 10
32 82 76
EOF
